results/x-long-filo1/X-n120-k6.vrp_seed-10.vrp.sol
Route #1: 10 94 80 32 91 21 79 118 30 67 25 73 31 52 50
Route #2: 33 36 115 48 86 65 74 110 106 7 97 19 28 18 44 9 15 83 58 14 23
Route #3: 34 27 11 56 1 24 37 57 77 100 59 22 4 95 60 68 69 81 53 8 78
Route #4: 98 13 41 85 89 51 63 104 105 101 47 5 26 117 108 66 46 75 17 103 99
Route #5: 88 38 29 12 49 2 43 76 113 64 82 109 42 39 70 55 93 16 84 119 61
Route #6: 116 107 96 71 112 45 3 114 90 35 92 6 40 111 102 72 87 62 54 20
Cost 13332.000000