results/x-long/X-n120-k6.vrp_seed-10.out
13332	1099
